50
    1   717   781
    2   857   942
    3   937   856
    4   931   925
    5   762   714
    6   711   763
    7   115    75
    8   582   541
    9   856   819
   10   845   812
   11   894   825
   12   248   237
   13   909   810
   14   865   886
   15   341   306
   16   920   846
   17   771   707
   18   659   618
   19   692   679
   20   223   208
   21   122    51
   22   953   953
   23   703   738
   24   933  1000
   25   749   682
   26  1003   970
   27   889   824
   28   721   657
   29   272   315
   30   476   497
   31   930   919
   32   613   677
   33   848   785
   34   273   335
   35   231   306
   36   486   515
   37   155    98
   38   644   614
   39   203   202
   40   652   680
   41   771   853
   42   530   563
   43   864   948
   44   220   159
   45   162   125
   46    56   156
   47   380   471
   48   849   915
   49   937   981
   50   219   202
5090
